%Chk=01-PbBr2_DMF
%mem=16GB
%NProcShared=8
# cam-b3lyp/Gen pseudo=read Opt Freq EmpiricalDispersion=GD3BJ SCRF=(Sol)

 PbBr2_DMF.log

0  1
Pb          0.32815        -0.31717        -1.00652
Br          2.20563        -0.66587        -3.18524
Br          1.56584        -2.25088         0.84722
O          -0.70956         1.91297        -2.14499
C          -1.59370         2.68314        -1.72562
H          -1.36607         3.73439        -1.46146
N          -2.89087         2.37220        -1.54886
C          -3.40402         1.04774        -1.86416
C          -3.83654         3.34714        -1.02716
H          -3.31590         4.28764        -0.81254
H          -4.29406         2.97510        -0.09892
H          -4.63550         3.53662        -1.75820
H          -3.69830         0.51988        -0.94521
H          -4.28246         1.13577        -2.51801
H          -2.62254         0.47714        -2.37481
O          -1.39396         0.46674         1.03688
C          -2.17325         1.20915         1.65825
H          -3.17757         0.85903         1.97129
N          -1.93234         2.48290         2.02370
C          -0.66975         3.13706         1.71391
C          -2.90510         3.24360         2.79368
H          -3.80372         2.63700         2.95595
H          -3.18513         4.16003         2.25413
H          -2.48501         3.52701         3.76982
H          -0.86344         4.11101         1.24290
H          -0.08873         3.30490         2.63345
H          -0.09320         2.50584         1.03152
O           1.80443         1.43048        -0.03506
C           2.53821         1.27335         0.97289
H           2.68205         0.27753         1.42784
N           3.19415         2.26537         1.58039
C           3.10648         3.64147         1.10848
C           4.02651         2.01098         2.74858
H           4.00053         0.94372         2.99502
H           3.65685         2.58752         3.60835
H           5.06503         2.30808         2.54528
H           2.67616         4.27941         1.89356
H           4.10984         4.01540         0.86199
H           2.47205         3.67287         0.21807
O          -1.40469        -2.12664        -2.03435
C          -2.61427        -2.35661        -1.83555
H          -3.34765        -2.32648        -2.66518
N          -3.17526        -2.66265        -0.65421
C          -2.37770        -2.78118         0.55994
C          -4.61590        -2.82590        -0.52543
H          -5.09049        -2.71453        -1.50724
H          -5.02608        -2.06487         0.15504
H          -4.85266        -3.82064        -0.12215
H          -2.47773        -1.87799         1.17914
H          -2.71855        -3.65511         1.13054
H          -1.32208        -2.90427         0.29520

O H N C 0
cc-pVDZ
****
Pb Br 0
LANL2DZ
****
 
Pb Br 0
LANL2
 
